p cnf 21 48
a 16 10 0
e 1 2 3 4 5 6 7 8 9 11 12 13 14 15 17 18 19 20 21 0
-3 -1 0
-3 -2 0
1 2 3 0
-4 2 -5 0
4 -2 -5 0
-4 -2 5 0
4 2 5 0
8 6 0
8 -7 0
-6 7 -8 0
9 2 0
9 1 0
-2 -1 -9 0
10 -8 0
10 9 0
8 -9 -10 0
11 -5 0
11 10 0
5 -10 -11 0
12 3 0
12 -11 0
-3 11 -12 0
-14 -13 0
-14 -6 0
13 6 14 0
-16 -15 0
-16 6 0
15 -6 16 0
14 16 -17 0
-14 -16 -17 0
14 -16 17 0
-14 16 17 0
-12 -17 -18 0
12 17 -18 0
-12 17 18 0
12 -17 18 0
-20 19 0
-20 -7 0
-19 7 20 0
18 -20 -21 0
-18 20 -21 0
18 20 21 0
-18 -20 21 0
-5 -2 -14 9 18 -11 0
1 15 2 13 9 17 0
2 16 -21 12 0
16 -1 -5 -13 -14 21 4 0
21 0
